row=9;
column=9;

Board=[|9,1,7,6,4,0,8,0,0|0,0,6,0,0,8,0,7,0|0,0,3,2,0,0,1,6,0|5,8,1,0,0,4,2,3,0|0,6,4,8,0,2,0,0,0|3,0,0,5,7,1,0,0,0|0,0,0,0,0,6,4,0,5|6,0,0,7,2,0,9,1,3|2,3,0,4,0,9,0,8,6|];
